set Wkrety:= A B C;
set Maszyny:= 1 2 3;


param IloscDoWytworzenia:=
A 1000
B 1500
C 2000;


param CzasTworzenia:
	A     B     C :=
1  0.12  0.13  0.90
2  0.13  0.12  0.12
3  0.70  0.80  0.12;


param ZuzywanaEnergiaNaJedenElement:=
1 3
2 7
3 5;


